(set-info :source |printed by MathSAT|)
(declare-fun |.x{1290}| () Int)
(declare-fun |.x{1342}| () Int)
(declare-fun |.x{1291}| () (Array Int Int))
(declare-fun |.x{1343}| () (Array Int Int))
(declare-fun |.x{1292}| () (Array Int Int))
(declare-fun |.x{1344}| () (Array Int Int))
(declare-fun |.x{1293}| () (Array Int (Array Int Int)))
(declare-fun |.x{1345}| () (Array Int (Array Int Int)))
(declare-fun |.x{1294}| () (Array Int (Array Int Int)))
(declare-fun |.x{1346}| () (Array Int (Array Int Int)))
(declare-fun |.x{1295}| () Int)
(declare-fun |.x{1347}| () Int)
(declare-fun |.x{1296}| () Int)
(declare-fun |.x{1348}| () Int)
(declare-fun |.x{1297}| () (Array Int Int))
(declare-fun |.x{1349}| () (Array Int Int))
(declare-fun |.x{1298}| () (Array Int Int))
(declare-fun |.x{1350}| () (Array Int Int))
(declare-fun |.x{1299}| () Int)
(declare-fun |.x{1351}| () Int)
(declare-fun |.x{1300}| () Int)
(declare-fun |.x{1352}| () Int)
(declare-fun |.x{1301}| () Int)
(declare-fun |.x{1353}| () Int)
(declare-fun |.x{1302}| () Int)
(declare-fun |.x{1354}| () Int)
(declare-fun |.x{1303}| () Int)
(declare-fun |.x{1355}| () Int)
(declare-fun |.x{1304}| () Int)
(declare-fun |.x{1356}| () Int)
(declare-fun |.x{1305}| () Int)
(declare-fun |.x{1357}| () Int)
(declare-fun |.x{1306}| () Int)
(declare-fun |.x{1358}| () Int)
(declare-fun |.x{1307}| () Int)
(declare-fun |.x{1359}| () Int)
(declare-fun |.x{1308}| () Int)
(declare-fun |.x{1360}| () Int)
(declare-fun |.x{1309}| () Int)
(declare-fun |.x{1361}| () Int)
(declare-fun |.x{1310}| () Int)
(declare-fun |.x{1362}| () Int)
(declare-fun |.x{1311}| () Int)
(declare-fun |.x{1363}| () Int)
(declare-fun |.x{1312}| () Int)
(declare-fun |.x{1364}| () Int)
(declare-fun |.x{1313}| () Int)
(declare-fun |.x{1365}| () Int)
(declare-fun |.x{1314}| () Int)
(declare-fun |.x{1366}| () Int)
(declare-fun |.x{1341}| () Bool)
(declare-fun |.x{1315}| () Bool)
(declare-fun |.loc{5}| () Bool)
(declare-fun |.loc{9}| () Bool)
(declare-fun |.loc{6}| () Bool)
(declare-fun |.loc{10}| () Bool)
(declare-fun |.loc{7}| () Bool)
(declare-fun |.loc{11}| () Bool)
(declare-fun |.loc{8}| () Bool)
(declare-fun |.loc{12}| () Bool)
(declare-fun |.x{103}| () (Array Int Int))
(define-fun .def_62 () Bool (! |.loc{6}| :next |.loc{10}|))
(define-fun .def_127 () Bool (not .def_62))
(define-fun .def_60 () Bool (! |.loc{5}| :next |.loc{9}|))
(define-fun .def_512 () Bool (and .def_60 .def_127))
(define-fun .def_64 () Bool (! |.loc{7}| :next |.loc{11}|))
(define-fun .def_129 () Bool (not .def_64))
(define-fun .def_513 () Bool (and .def_129 .def_512))
(define-fun .def_66 () Bool (! |.loc{8}| :next |.loc{12}|))
(define-fun .def_120 () Bool (not .def_66))
(define-fun .def_514 () Bool (and .def_120 .def_513))
(define-fun .def_58 () Bool (! |.x{1341}| :next |.x{1315}|))
(define-fun .def_506 () Bool (not .def_58))
(define-fun .def_16 () (Array Int (Array Int Int)) (! |.x{1294}| :next |.x{1346}|))
(define-fun .def_14 () (Array Int (Array Int Int)) (! |.x{1293}| :next |.x{1345}|))
(define-fun .def_505 () Bool (= .def_14 .def_16))
(define-fun .def_507 () Bool (and .def_505 .def_506))
(define-fun .def_28 () Int (! |.x{1300}| :next |.x{1352}|))
(define-fun .def_26 () Int (! |.x{1299}| :next |.x{1351}|))
(define-fun .def_504 () Bool (= .def_26 .def_28))
(define-fun .def_508 () Bool (and .def_504 .def_507))
(define-fun .def_20 () Int (! |.x{1296}| :next |.x{1348}|))
(define-fun .def_18 () Int (! |.x{1295}| :next |.x{1347}|))
(define-fun .def_503 () Bool (= .def_18 .def_20))
(define-fun .def_509 () Bool (and .def_503 .def_508))
(define-fun .def_24 () (Array Int Int) (! |.x{1298}| :next |.x{1350}|))
(define-fun .def_22 () (Array Int Int) (! |.x{1297}| :next |.x{1349}|))
(define-fun .def_502 () Bool (= .def_22 .def_24))
(define-fun .def_510 () Bool (and .def_502 .def_509))
(define-fun .def_12 () (Array Int Int) (! |.x{1292}| :next |.x{1344}|))
(define-fun .def_10 () (Array Int Int) (! |.x{1291}| :next |.x{1343}|))
(define-fun .def_501 () Bool (= .def_10 .def_12))
(define-fun .def_511 () Bool (and .def_501 .def_510))
(define-fun .def_515 () Bool (! (and .def_511 .def_514) :init true))
(define-fun .def_498 () Bool (= .def_20 |.x{1348}|))
(define-fun .def_496 () Bool (= .def_16 |.x{1346}|))
(define-fun .def_494 () Bool (= .def_12 |.x{1344}|))
(define-fun .def_8 () Int (! |.x{1290}| :next |.x{1342}|))
(define-fun .def_492 () Bool (= .def_8 |.x{1342}|))
(define-fun .def_490 () Bool (= .def_24 |.x{1350}|))
(define-fun .def_489 () Bool (= .def_28 |.x{1352}|))
(define-fun .def_491 () Bool (and .def_489 .def_490))
(define-fun .def_493 () Bool (and .def_491 .def_492))
(define-fun .def_495 () Bool (and .def_493 .def_494))
(define-fun .def_497 () Bool (and .def_495 .def_496))
(define-fun .def_499 () Bool (and .def_497 .def_498))
(define-fun .def_486 () Bool (= .def_18 |.x{1347}|))
(define-fun .def_30 () Int (! |.x{1301}| :next |.x{1353}|))
(define-fun .def_482 () Bool (= .def_30 |.x{1353}|))
(define-fun .def_32 () Int (! |.x{1302}| :next |.x{1354}|))
(define-fun .def_141 () Bool (= .def_32 |.x{1354}|))
(define-fun .def_445 () Bool (and |.x{1315}| .def_141))
(define-fun .def_38 () Int (! |.x{1305}| :next |.x{1357}|))
(define-fun .def_118 () Bool (= .def_38 |.x{1357}|))
(define-fun .def_446 () Bool (and .def_118 .def_445))
(define-fun .def_40 () Int (! |.x{1306}| :next |.x{1358}|))
(define-fun .def_145 () Bool (= .def_40 |.x{1358}|))
(define-fun .def_447 () Bool (and .def_145 .def_446))
(define-fun .def_44 () Int (! |.x{1308}| :next |.x{1360}|))
(define-fun .def_150 () Bool (= .def_44 |.x{1360}|))
(define-fun .def_448 () Bool (and .def_150 .def_447))
(define-fun .def_50 () Int (! |.x{1311}| :next |.x{1363}|))
(define-fun .def_157 () Bool (= .def_50 |.x{1363}|))
(define-fun .def_449 () Bool (and .def_157 .def_448))
(define-fun .def_161 () Bool (not .def_60))
(define-fun .def_450 () Bool (and .def_161 .def_449))
(define-fun .def_54 () Int (! |.x{1313}| :next |.x{1365}|))
(define-fun .def_163 () Bool (= .def_54 |.x{1365}|))
(define-fun .def_451 () Bool (and .def_163 .def_450))
(define-fun .def_168 () Bool (= .def_10 |.x{1343}|))
(define-fun .def_452 () Bool (and .def_168 .def_451))
(define-fun .def_440 () Bool (= |.x{1360}| 0))
(define-fun .def_437 () (Array Int Int) (store .def_10 .def_40 0))
(define-fun .def_438 () (Array Int Int) (store .def_437 .def_50 0))
(define-fun .def_439 () Bool (= |.x{1343}| .def_438))
(define-fun .def_441 () Bool (and .def_439 .def_440))
(define-fun .def_442 () Bool (or .def_58 .def_441))
(define-fun .def_434 () Bool (= |.x{1357}| |.x{1360}|))
(define-fun .def_435 () Bool (or |.x{1315}| .def_434))
(define-fun .def_122 () Bool (= .def_58 |.x{1315}|))
(define-fun .def_436 () Bool (and .def_122 .def_435))
(define-fun .def_443 () Bool (and .def_436 .def_442))
(define-fun .def_444 () Bool (and .def_60 .def_443))
(define-fun .def_453 () Bool (or .def_444 .def_452))
(define-fun .def_454 () Bool (and .def_66 .def_453))
(define-fun .def_455 () Bool (and .def_127 .def_454))
(define-fun .def_456 () Bool (and .def_129 .def_455))
(define-fun .def_457 () Bool (and |.loc{10}| .def_456))
(define-fun .def_34 () Int (! |.x{1303}| :next |.x{1355}|))
(define-fun .def_310 () Bool (= .def_34 0))
(define-fun .def_426 () Bool (or .def_58 .def_310))
(define-fun .def_420 () Bool (and .def_118 .def_141))
(define-fun .def_421 () Bool (and .def_145 .def_420))
(define-fun .def_224 () Bool (not |.loc{10}|))
(define-fun .def_422 () Bool (and .def_224 .def_421))
(define-fun .def_423 () Bool (and .def_120 .def_422))
(define-fun .def_424 () Bool (and .def_150 .def_423))
(define-fun .def_425 () Bool (and .def_122 .def_424))
(define-fun .def_427 () Bool (and .def_425 .def_426))
(define-fun .def_428 () Bool (and .def_157 .def_427))
(define-fun .def_429 () Bool (and .def_60 .def_428))
(define-fun .def_430 () Bool (and .def_62 .def_429))
(define-fun .def_431 () Bool (and .def_64 .def_430))
(define-fun .def_432 () Bool (and .def_163 .def_431))
(define-fun .def_433 () Bool (and .def_168 .def_432))
(define-fun .def_458 () Bool (or .def_433 .def_457))
(define-fun .def_114 () Bool (= .def_34 |.x{1355}|))
(define-fun .def_459 () Bool (and .def_114 .def_458))
(define-fun .def_46 () Int (! |.x{1309}| :next |.x{1361}|))
(define-fun .def_153 () Bool (= .def_46 |.x{1361}|))
(define-fun .def_460 () Bool (and .def_153 .def_459))
(define-fun .def_52 () Int (! |.x{1312}| :next |.x{1364}|))
(define-fun .def_125 () Bool (= .def_52 |.x{1364}|))
(define-fun .def_461 () Bool (and .def_125 .def_460))
(define-fun .def_56 () Int (! |.x{1314}| :next |.x{1366}|))
(define-fun .def_166 () Bool (= .def_56 |.x{1366}|))
(define-fun .def_462 () Bool (and .def_166 .def_461))
(define-fun .def_463 () Bool (and |.loc{12}| .def_462))
(define-fun .def_132 () Bool (not |.loc{9}|))
(define-fun .def_464 () Bool (and .def_132 .def_463))
(define-fun .def_134 () Bool (not |.loc{11}|))
(define-fun .def_465 () Bool (and .def_134 .def_464))
(define-fun .def_407 () Bool (= |.x{1361}| |.x{1366}|))
(define-fun .def_408 () Int (ite .def_407 1 0))
(define-fun .def_409 () Bool (= |.x{1364}| .def_408))
(define-fun .def_406 () Bool (= |.x{1355}| |.x{1364}|))
(define-fun .def_410 () Bool (and .def_406 .def_409))
(define-fun .def_42 () Int (! |.x{1307}| :next |.x{1359}|))
(define-fun .def_399 () Int (* 8 .def_42))
(define-fun .def_402 () Int (+ .def_399 .def_54))
(define-fun .def_403 () Int (+ .def_402 4))
(define-fun .def_182 () (Array Int Int) (select .def_14 .def_50))
(define-fun .def_404 () Int (select .def_182 .def_403))
(define-fun .def_405 () Bool (= |.x{1366}| .def_404))
(define-fun .def_411 () Bool (and .def_405 .def_410))
(define-fun .def_261 () Int (* 4 .def_42))
(define-fun .def_262 () Int (+ .def_32 .def_261))
(define-fun .def_263 () (Array Int Int) (select .def_14 .def_40))
(define-fun .def_396 () Int (select .def_263 .def_262))
(define-fun .def_397 () Bool (= |.x{1361}| .def_396))
(define-fun .def_412 () Bool (and .def_397 .def_411))
(define-fun .def_36 () Int (! |.x{1304}| :next |.x{1356}|))
(define-fun .def_192 () Bool (<= 100000 .def_36))
(define-fun .def_193 () Bool (not .def_192))
(define-fun .def_413 () Bool (and .def_193 .def_412))
(define-fun .def_414 () Bool (or .def_58 .def_413))
(define-fun .def_116 () Bool (not |.loc{12}|))
(define-fun .def_385 () Bool (and .def_116 .def_141))
(define-fun .def_386 () Bool (and .def_118 .def_385))
(define-fun .def_387 () Bool (and .def_145 .def_386))
(define-fun .def_388 () Bool (and .def_120 .def_387))
(define-fun .def_389 () Bool (and .def_150 .def_388))
(define-fun .def_390 () Bool (and .def_122 .def_389))
(define-fun .def_391 () Bool (and .def_157 .def_390))
(define-fun .def_392 () Bool (and .def_62 .def_391))
(define-fun .def_393 () Bool (and .def_64 .def_392))
(define-fun .def_394 () Bool (and .def_161 .def_393))
(define-fun .def_395 () Bool (and .def_163 .def_394))
(define-fun .def_415 () Bool (and .def_395 .def_414))
(define-fun .def_416 () Bool (and |.loc{9}| .def_415))
(define-fun .def_417 () Bool (and .def_168 .def_416))
(define-fun .def_418 () Bool (and |.loc{10}| .def_417))
(define-fun .def_419 () Bool (and |.loc{11}| .def_418))
(define-fun .def_466 () Bool (or .def_419 .def_465))
(define-fun .def_198 () Bool (= .def_36 |.x{1356}|))
(define-fun .def_147 () Bool (= .def_42 |.x{1359}|))
(define-fun .def_384 () Bool (and .def_147 .def_198))
(define-fun .def_467 () Bool (and .def_384 .def_466))
(define-fun .def_270 () Int (* (- 1) |.x{1359}|))
(define-fun .def_271 () Int (+ .def_42 .def_270))
(define-fun .def_272 () Bool (= .def_271 (- 1)))
(define-fun .def_176 () Int (* (- 1) |.x{1356}|))
(define-fun .def_177 () Int (+ .def_36 .def_176))
(define-fun .def_268 () Bool (= .def_177 (- 2)))
(define-fun .def_377 () Bool (and .def_268 .def_272))
(define-fun .def_378 () Bool (or .def_58 .def_377))
(define-fun .def_142 () Bool (and .def_114 .def_141))
(define-fun .def_143 () Bool (and .def_116 .def_142))
(define-fun .def_144 () Bool (and .def_118 .def_143))
(define-fun .def_146 () Bool (and .def_144 .def_145))
(define-fun .def_353 () Bool (and .def_120 .def_146))
(define-fun .def_354 () Bool (and .def_150 .def_353))
(define-fun .def_355 () Bool (and .def_122 .def_354))
(define-fun .def_371 () Bool (and .def_157 .def_355))
(define-fun .def_372 () Bool (and .def_125 .def_371))
(define-fun .def_373 () Bool (and .def_161 .def_372))
(define-fun .def_374 () Bool (and .def_127 .def_373))
(define-fun .def_375 () Bool (and .def_163 .def_374))
(define-fun .def_376 () Bool (and .def_129 .def_375))
(define-fun .def_379 () Bool (and .def_376 .def_378))
(define-fun .def_380 () Bool (and .def_168 .def_379))
(define-fun .def_381 () Bool (and |.loc{10}| .def_380))
(define-fun .def_382 () Bool (and |.loc{11}| .def_381))
(define-fun .def_383 () Bool (and .def_132 .def_382))
(define-fun .def_468 () Bool (or .def_383 .def_467))
(define-fun .def_234 () Bool (= |.x{1356}| 1))
(define-fun .def_106 () Bool (= |.x{1359}| 0))
(define-fun .def_357 () Bool (and .def_106 .def_234))
(define-fun .def_358 () Bool (or .def_58 .def_357))
(define-fun .def_356 () Bool (and .def_153 .def_355))
(define-fun .def_359 () Bool (and .def_356 .def_358))
(define-fun .def_360 () Bool (and .def_157 .def_359))
(define-fun .def_361 () Bool (and .def_60 .def_360))
(define-fun .def_362 () Bool (and .def_64 .def_361))
(define-fun .def_363 () Bool (and .def_125 .def_362))
(define-fun .def_364 () Bool (and .def_127 .def_363))
(define-fun .def_365 () Bool (and .def_163 .def_364))
(define-fun .def_366 () Bool (and .def_166 .def_365))
(define-fun .def_367 () Bool (and .def_168 .def_366))
(define-fun .def_368 () Bool (and |.loc{10}| .def_367))
(define-fun .def_369 () Bool (and |.loc{11}| .def_368))
(define-fun .def_370 () Bool (and .def_132 .def_369))
(define-fun .def_469 () Bool (or .def_370 .def_468))
(define-fun .def_199 () Bool (and .def_142 .def_198))
(define-fun .def_332 () Bool (and .def_118 .def_199))
(define-fun .def_333 () Bool (and .def_145 .def_332))
(define-fun .def_334 () Bool (and .def_224 .def_333))
(define-fun .def_335 () Bool (and .def_147 .def_334))
(define-fun .def_336 () Bool (and .def_120 .def_335))
(define-fun .def_337 () Bool (and .def_150 .def_336))
(define-fun .def_338 () Bool (and .def_122 .def_337))
(define-fun .def_339 () Bool (and .def_153 .def_338))
(define-fun .def_340 () Bool (and .def_157 .def_339))
(define-fun .def_341 () Bool (and .def_62 .def_340))
(define-fun .def_342 () Bool (and .def_64 .def_341))
(define-fun .def_343 () Bool (and .def_125 .def_342))
(define-fun .def_344 () Bool (and .def_161 .def_343))
(define-fun .def_345 () Bool (and .def_163 .def_344))
(define-fun .def_346 () Bool (and .def_166 .def_345))
(define-fun .def_347 () Bool (and |.loc{9}| .def_346))
(define-fun .def_348 () Bool (and .def_168 .def_347))
(define-fun .def_349 () Bool (and |.loc{12}| .def_348))
(define-fun .def_350 () Bool (and .def_134 .def_349))
(define-fun .def_352 () Bool (and .def_58 .def_350))
(define-fun .def_470 () Bool (or .def_352 .def_469))
(define-fun .def_221 () Bool (or .def_58 .def_192))
(define-fun .def_351 () Bool (and .def_221 .def_350))
(define-fun .def_471 () Bool (or .def_351 .def_470))
(define-fun .def_311 () Bool (not .def_310))
(define-fun .def_312 () Bool (or .def_58 .def_311))
(define-fun .def_200 () Bool (and .def_116 .def_199))
(define-fun .def_313 () Bool (and .def_200 .def_312))
(define-fun .def_314 () Bool (and .def_118 .def_313))
(define-fun .def_315 () Bool (and .def_145 .def_314))
(define-fun .def_316 () Bool (and .def_224 .def_315))
(define-fun .def_317 () Bool (and .def_147 .def_316))
(define-fun .def_318 () Bool (and .def_120 .def_317))
(define-fun .def_319 () Bool (and .def_150 .def_318))
(define-fun .def_320 () Bool (and .def_122 .def_319))
(define-fun .def_321 () Bool (and .def_153 .def_320))
(define-fun .def_322 () Bool (and .def_157 .def_321))
(define-fun .def_323 () Bool (and .def_60 .def_322))
(define-fun .def_324 () Bool (and .def_62 .def_323))
(define-fun .def_325 () Bool (and .def_64 .def_324))
(define-fun .def_326 () Bool (and .def_125 .def_325))
(define-fun .def_327 () Bool (and .def_163 .def_326))
(define-fun .def_328 () Bool (and .def_166 .def_327))
(define-fun .def_329 () Bool (and .def_168 .def_328))
(define-fun .def_330 () Bool (and .def_132 .def_329))
(define-fun .def_331 () Bool (and .def_134 .def_330))
(define-fun .def_472 () Bool (or .def_331 .def_471))
(define-fun .def_201 () Bool (and .def_118 .def_200))
(define-fun .def_202 () Bool (and .def_145 .def_201))
(define-fun .def_277 () Bool (and .def_202 .def_224))
(define-fun .def_278 () Bool (and .def_147 .def_277))
(define-fun .def_295 () Bool (and .def_150 .def_278))
(define-fun .def_296 () Bool (and .def_122 .def_295))
(define-fun .def_297 () Bool (and .def_153 .def_296))
(define-fun .def_298 () Bool (and .def_157 .def_297))
(define-fun .def_299 () Bool (and .def_125 .def_298))
(define-fun .def_300 () Bool (and .def_66 .def_299))
(define-fun .def_301 () Bool (and .def_161 .def_300))
(define-fun .def_302 () Bool (and .def_127 .def_301))
(define-fun .def_303 () Bool (and .def_163 .def_302))
(define-fun .def_304 () Bool (and .def_129 .def_303))
(define-fun .def_305 () Bool (and .def_166 .def_304))
(define-fun .def_306 () Bool (and .def_168 .def_305))
(define-fun .def_307 () Bool (and .def_132 .def_306))
(define-fun .def_308 () Bool (and .def_134 .def_307))
(define-fun .def_309 () Bool (and .def_58 .def_308))
(define-fun .def_473 () Bool (or .def_309 .def_472))
(define-fun .def_279 () Bool (and .def_120 .def_278))
(define-fun .def_280 () Bool (and .def_150 .def_279))
(define-fun .def_281 () Bool (and .def_122 .def_280))
(define-fun .def_282 () Bool (and .def_153 .def_281))
(define-fun .def_283 () Bool (and .def_157 .def_282))
(define-fun .def_284 () Bool (and .def_125 .def_283))
(define-fun .def_285 () Bool (and .def_64 .def_284))
(define-fun .def_286 () Bool (and .def_161 .def_285))
(define-fun .def_287 () Bool (and .def_163 .def_286))
(define-fun .def_288 () Bool (and .def_127 .def_287))
(define-fun .def_289 () Bool (and .def_166 .def_288))
(define-fun .def_290 () Bool (and |.loc{9}| .def_289))
(define-fun .def_291 () Bool (and .def_168 .def_290))
(define-fun .def_292 () Bool (and |.loc{11}| .def_291))
(define-fun .def_294 () Bool (and .def_58 .def_292))
(define-fun .def_474 () Bool (or .def_294 .def_473))
(define-fun .def_293 () Bool (and .def_221 .def_292))
(define-fun .def_475 () Bool (or .def_293 .def_474))
(define-fun .def_48 () Int (! |.x{1310}| :next |.x{1362}|))
(define-fun .def_155 () Bool (= .def_48 |.x{1362}|))
(define-fun .def_476 () Bool (and .def_155 .def_475))
(define-fun .def_136 () Bool (= .def_14 |.x{1345}|))
(define-fun .def_477 () Bool (and .def_136 .def_476))
(define-fun .def_180 () Int (* 4 .def_36))
(define-fun .def_183 () Int (+ .def_180 .def_54))
(define-fun .def_260 () Int (select .def_182 .def_183))
(define-fun .def_264 () (Array Int Int) (store .def_263 .def_262 .def_260))
(define-fun .def_265 () (Array Int (Array Int Int)) (store .def_14 .def_40 .def_264))
(define-fun .def_266 () Bool (= |.x{1345}| .def_265))
(define-fun .def_269 () Bool (and .def_266 .def_268))
(define-fun .def_273 () Bool (and .def_269 .def_272))
(define-fun .def_274 () Bool (and .def_193 .def_273))
(define-fun .def_275 () Bool (or .def_58 .def_274))
(define-fun .def_225 () Bool (and .def_146 .def_224))
(define-fun .def_246 () Bool (and .def_120 .def_225))
(define-fun .def_247 () Bool (and .def_150 .def_246))
(define-fun .def_248 () Bool (and .def_122 .def_247))
(define-fun .def_249 () Bool (and .def_153 .def_248))
(define-fun .def_250 () Bool (and .def_157 .def_249))
(define-fun .def_251 () Bool (and .def_64 .def_250))
(define-fun .def_252 () Bool (and .def_125 .def_251))
(define-fun .def_253 () Bool (and .def_161 .def_252))
(define-fun .def_254 () Bool (and .def_127 .def_253))
(define-fun .def_255 () Bool (and .def_163 .def_254))
(define-fun .def_256 () Bool (and .def_166 .def_255))
(define-fun .def_257 () Bool (and .def_168 .def_256))
(define-fun .def_258 () Bool (and |.loc{11}| .def_257))
(define-fun .def_259 () Bool (and .def_132 .def_258))
(define-fun .def_276 () Bool (and .def_259 .def_275))
(define-fun .def_478 () Bool (or .def_276 .def_477))
(define-fun .def_235 () Bool (or .def_58 .def_234))
(define-fun .def_226 () Bool (and .def_147 .def_225))
(define-fun .def_227 () Bool (and .def_120 .def_226))
(define-fun .def_228 () Bool (and .def_150 .def_227))
(define-fun .def_229 () Bool (and .def_122 .def_228))
(define-fun .def_230 () Bool (and .def_153 .def_229))
(define-fun .def_231 () Bool (and .def_155 .def_230))
(define-fun .def_232 () Bool (and .def_157 .def_231))
(define-fun .def_233 () Bool (and .def_60 .def_232))
(define-fun .def_236 () Bool (and .def_233 .def_235))
(define-fun .def_237 () Bool (and .def_62 .def_236))
(define-fun .def_238 () Bool (and .def_125 .def_237))
(define-fun .def_239 () Bool (and .def_163 .def_238))
(define-fun .def_240 () Bool (and .def_129 .def_239))
(define-fun .def_241 () Bool (and .def_166 .def_240))
(define-fun .def_242 () Bool (and .def_168 .def_241))
(define-fun .def_243 () Bool (and |.loc{11}| .def_242))
(define-fun .def_244 () Bool (and .def_132 .def_243))
(define-fun .def_245 () Bool (and .def_136 .def_244))
(define-fun .def_479 () Bool (or .def_245 .def_478))
(define-fun .def_203 () Bool (and .def_147 .def_202))
(define-fun .def_204 () Bool (and .def_120 .def_203))
(define-fun .def_205 () Bool (and .def_150 .def_204))
(define-fun .def_206 () Bool (and .def_122 .def_205))
(define-fun .def_207 () Bool (and .def_153 .def_206))
(define-fun .def_208 () Bool (and .def_155 .def_207))
(define-fun .def_209 () Bool (and .def_157 .def_208))
(define-fun .def_210 () Bool (and .def_62 .def_209))
(define-fun .def_211 () Bool (and .def_125 .def_210))
(define-fun .def_212 () Bool (and .def_161 .def_211))
(define-fun .def_213 () Bool (and .def_163 .def_212))
(define-fun .def_214 () Bool (and .def_129 .def_213))
(define-fun .def_215 () Bool (and .def_166 .def_214))
(define-fun .def_216 () Bool (and |.loc{9}| .def_215))
(define-fun .def_217 () Bool (and .def_168 .def_216))
(define-fun .def_218 () Bool (and |.loc{10}| .def_217))
(define-fun .def_219 () Bool (and .def_134 .def_218))
(define-fun .def_220 () Bool (and .def_136 .def_219))
(define-fun .def_223 () Bool (and .def_58 .def_220))
(define-fun .def_480 () Bool (or .def_223 .def_479))
(define-fun .def_222 () Bool (and .def_220 .def_221))
(define-fun .def_481 () Bool (or .def_222 .def_480))
(define-fun .def_483 () Bool (and .def_481 .def_482))
(define-fun .def_188 () Bool (<= .def_30 2147483647))
(define-fun .def_184 () (Array Int Int) (store .def_182 .def_183 .def_30))
(define-fun .def_185 () (Array Int (Array Int Int)) (store .def_14 .def_50 .def_184))
(define-fun .def_186 () Bool (= |.x{1345}| .def_185))
(define-fun .def_189 () Bool (and .def_186 .def_188))
(define-fun .def_178 () Bool (= .def_177 (- 1)))
(define-fun .def_190 () Bool (and .def_178 .def_189))
(define-fun .def_194 () Bool (and .def_190 .def_193))
(define-fun .def_174 () Bool (<= (- 2147483648) .def_30))
(define-fun .def_195 () Bool (and .def_174 .def_194))
(define-fun .def_196 () Bool (or .def_58 .def_195))
(define-fun .def_148 () Bool (and .def_146 .def_147))
(define-fun .def_149 () Bool (and .def_120 .def_148))
(define-fun .def_151 () Bool (and .def_149 .def_150))
(define-fun .def_152 () Bool (and .def_122 .def_151))
(define-fun .def_154 () Bool (and .def_152 .def_153))
(define-fun .def_156 () Bool (and .def_154 .def_155))
(define-fun .def_158 () Bool (and .def_156 .def_157))
(define-fun .def_159 () Bool (and .def_62 .def_158))
(define-fun .def_160 () Bool (and .def_125 .def_159))
(define-fun .def_162 () Bool (and .def_160 .def_161))
(define-fun .def_164 () Bool (and .def_162 .def_163))
(define-fun .def_165 () Bool (and .def_129 .def_164))
(define-fun .def_167 () Bool (and .def_165 .def_166))
(define-fun .def_169 () Bool (and .def_167 .def_168))
(define-fun .def_170 () Bool (and |.loc{10}| .def_169))
(define-fun .def_171 () Bool (and .def_132 .def_170))
(define-fun .def_172 () Bool (and .def_134 .def_171))
(define-fun .def_197 () Bool (and .def_172 .def_196))
(define-fun .def_484 () Bool (or .def_197 .def_483))
(define-fun .def_139 () Bool (= .def_22 |.x{1349}|))
(define-fun .def_138 () Bool (= .def_26 |.x{1351}|))
(define-fun .def_140 () Bool (and .def_138 .def_139))
(define-fun .def_485 () Bool (and .def_140 .def_484))
(define-fun .def_487 () Bool (and .def_485 .def_486))
(define-fun .def_108 () Bool (<= |.x{1342}| |.x{1363}|))
(define-fun .def_109 () Bool (not .def_108))
(define-fun .def_103 () Bool (<= |.x{1342}| |.x{1358}|))
(define-fun .def_104 () Bool (not .def_103))
(define-fun .def_94 () (Array Int Int) (store .def_22 |.x{1358}| 400000))
(define-fun .def_95 () (Array Int Int) (store .def_94 |.x{1363}| 400000))
(define-fun .def_96 () Bool (= |.x{1349}| .def_95))
(define-fun .def_85 () (Array Int Int) (store |.x{103}| |.x{1358}| 1))
(define-fun .def_90 () Int (select .def_85 |.x{1363}|))
(define-fun .def_91 () Bool (= .def_90 0))
(define-fun .def_88 () Bool (= |.x{1363}| 0))
(define-fun .def_89 () Bool (not .def_88))
(define-fun .def_92 () Bool (and .def_89 .def_91))
(define-fun .def_97 () Bool (and .def_92 .def_96))
(define-fun .def_86 () (Array Int Int) (store .def_85 |.x{1363}| 1))
(define-fun .def_87 () Bool (= |.x{1343}| .def_86))
(define-fun .def_98 () Bool (and .def_87 .def_97))
(define-fun .def_82 () Bool (= |.x{1358}| 0))
(define-fun .def_83 () Bool (not .def_82))
(define-fun .def_99 () Bool (and .def_83 .def_98))
(define-fun .def_81 () Bool (= |.x{1356}| 0))
(define-fun .def_100 () Bool (and .def_81 .def_99))
(define-fun .def_80 () Bool (= |.x{1365}| 0))
(define-fun .def_101 () Bool (and .def_80 .def_100))
(define-fun .def_79 () Bool (= |.x{1354}| 0))
(define-fun .def_102 () Bool (and .def_79 .def_101))
(define-fun .def_105 () Bool (and .def_102 .def_104))
(define-fun .def_107 () Bool (and .def_105 .def_106))
(define-fun .def_110 () Bool (and .def_107 .def_109))
(define-fun .def_77 () Int (select |.x{103}| |.x{1358}|))
(define-fun .def_78 () Bool (= .def_77 0))
(define-fun .def_111 () Bool (and .def_78 .def_110))
(define-fun .def_112 () Bool (or |.x{1315}| .def_111))
(define-fun .def_73 () Bool (= |.x{1351}| 0))
(define-fun .def_72 () Bool (= |.x{1347}| 0))
(define-fun .def_74 () Bool (and .def_72 .def_73))
(define-fun .def_69 () (Array Int Int) (store .def_10 0 0))
(define-fun .def_71 () Bool (= .def_69 |.x{103}|))
(define-fun .def_75 () Bool (and .def_71 .def_74))
(define-fun .def_76 () Bool (or .def_58 .def_75))
(define-fun .def_113 () Bool (and .def_76 .def_112))
(define-fun .def_115 () Bool (and .def_113 .def_114))
(define-fun .def_117 () Bool (and .def_115 .def_116))
(define-fun .def_119 () Bool (and .def_117 .def_118))
(define-fun .def_121 () Bool (and .def_119 .def_120))
(define-fun .def_123 () Bool (and .def_121 .def_122))
(define-fun .def_124 () Bool (and .def_60 .def_123))
(define-fun .def_126 () Bool (and .def_124 .def_125))
(define-fun .def_128 () Bool (and .def_126 .def_127))
(define-fun .def_130 () Bool (and .def_128 .def_129))
(define-fun .def_131 () Bool (and |.loc{10}| .def_130))
(define-fun .def_133 () Bool (and .def_131 .def_132))
(define-fun .def_135 () Bool (and .def_133 .def_134))
(define-fun .def_137 () Bool (and .def_135 .def_136))
(define-fun .def_488 () Bool (or .def_137 .def_487))
(define-fun .def_500 () Bool (! (and .def_488 .def_499) :trans true))
(define-fun .def_516 () Bool (and .def_62 .def_161))
(define-fun .def_517 () Bool (and .def_129 .def_516))
(define-fun .def_518 () Bool (and .def_66 .def_517))
(define-fun .def_519 () Bool (and .def_58 .def_518))
(define-fun .def_520 () Bool (! (not .def_519) :invar-property 0))
(assert true)
